N = 6;
H = 6;
T = 2;

avail = array3d(1..N, 1..H, 1..T, [9, 6, 8, 7, 4, 1, 7, 0, 9, 9, 5, 4, 2, 7, 8, 5, 2, 7, 5, 3, 2, 2, 9, 4, 9, 5, 2, 3, 1, 1, 0, 10, 10, 9, 4, 4, 9, 0, 9, 10, 8, 8, 9, 10, 6, 0, 7, 8, 3, 10, 7, 7, 0, 2, 3, 1, 8, 0, 7, 2, 3, 3, 6, 4, 6, 7, 3, 4, 1, 1, 6, 4]);

r = array2d(1..H, 1..T, [2, 1, 1, 3, 2, 1, 1, 2, 2, 3, 2, 0]);
